10	5
0	5	2	4	1	5	3
1	1	7
2	1	6
3	0
4	2	9	10
5	1	11
6	1	8
7	2	10	6
8	1	9
9	1	11
10	1	11
11	0
0	0	0	0	0	0	0
1	10	5	5	3	4	1
2	9	1	2	1	2	2
3	6	1	2	1	2	4
4	1	1	1	3	4	1
5	10	2	1	4	5	2
6	5	3	3	3	1	5
7	4	2	5	5	3	5
8	2	3	4	3	2	4
9	7	3	2	5	1	2
10	1	1	2	4	4	5
11	0	0	0	0	0	0
8	8	9	11	8
